c 
c G(k,n,p) graph
c graph gen seed     : 39303
c number of vertices : 60
c max number of edges: 900
c number of classes  : 2
c edge density       : 0.400000
c edge probability   : 0.800000
c data structure     : dense
c
c           Graph Stats
c number of vertices  : 60
c nonisolated vertices: 60
c number of edges     : 715
c edge density        : 0.403955
c max degree          : 28
c avg degree          : 23.83
c min degree          : 19
p col 60 715
e 1 7
e 1 11
e 1 12
e 1 13
e 1 14
e 1 15
e 1 16
e 1 17
e 1 18
e 1 20
e 1 21
e 1 24
e 1 25
e 1 26
e 1 27
e 1 30
e 1 32
e 1 37
e 1 39
e 1 40
e 1 41
e 1 42
e 1 43
e 1 46
e 1 47
e 1 50
e 1 51
e 1 52
e 1 54
e 1 55
e 1 57
e 1 58
e 1 59
e 1 60
e 2 3
e 2 4
e 2 5
e 2 6
e 2 8
e 2 9
e 2 10
e 2 13
e 2 14
e 2 15
e 2 16
e 2 19
e 2 20
e 2 22
e 2 23
e 2 26
e 2 28
e 2 29
e 2 30
e 2 31
e 2 33
e 2 34
e 2 35
e 2 36
e 2 38
e 2 41
e 2 42
e 2 44
e 2 45
e 2 48
e 2 49
e 2 50
e 2 51
e 2 53
e 2 54
e 2 55
e 2 56
e 2 57
e 2 60
e 3 4
e 3 5
e 3 6
e 3 7
e 3 8
e 3 9
e 3 10
e 3 14
e 3 19
e 3 20
e 3 21
e 3 22
e 3 23
e 3 24
e 3 28
e 3 29
e 3 30
e 3 31
e 3 33
e 3 34
e 3 35
e 3 36
e 3 38
e 3 42
e 3 44
e 3 45
e 3 47
e 3 48
e 3 49
e 3 53
e 3 55
e 3 56
e 3 57
e 3 60
e 4 5
e 4 6
e 4 7
e 4 8
e 4 9
e 4 10
e 4 15
e 4 19
e 4 20
e 4 22
e 4 23
e 4 28
e 4 29
e 4 31
e 4 32
e 4 33
e 4 34
e 4 35
e 4 36
e 4 38
e 4 41
e 4 42
e 4 43
e 4 44
e 4 45
e 4 46
e 4 47
e 4 48
e 4 49
e 4 53
e 4 55
e 4 56
e 4 57
e 4 60
e 5 6
e 5 8
e 5 9
e 5 10
e 5 19
e 5 20
e 5 22
e 5 23
e 5 28
e 5 29
e 5 31
e 5 33
e 5 34
e 5 35
e 5 36
e 5 37
e 5 38
e 5 42
e 5 43
e 5 44
e 5 45
e 5 46
e 5 48
e 5 49
e 5 50
e 5 53
e 5 54
e 5 55
e 5 56
e 5 57
e 5 58
e 5 60
e 6 8
e 6 9
e 6 10
e 6 12
e 6 16
e 6 19
e 6 20
e 6 22
e 6 23
e 6 24
e 6 26
e 6 28
e 6 29
e 6 31
e 6 33
e 6 34
e 6 35
e 6 36
e 6 38
e 6 39
e 6 42
e 6 44
e 6 45
e 6 48
e 6 49
e 6 51
e 6 52
e 6 53
e 6 55
e 6 56
e 6 57
e 6 59
e 6 60
e 7 9
e 7 11
e 7 12
e 7 13
e 7 14
e 7 15
e 7 16
e 7 17
e 7 18
e 7 19
e 7 21
e 7 23
e 7 24
e 7 25
e 7 26
e 7 27
e 7 29
e 7 30
e 7 32
e 7 35
e 7 37
e 7 39
e 7 40
e 7 41
e 7 43
e 7 46
e 7 47
e 7 49
e 7 50
e 7 51
e 7 52
e 7 54
e 7 58
e 7 59
e 8 9
e 8 10
e 8 15
e 8 19
e 8 20
e 8 22
e 8 23
e 8 25
e 8 28
e 8 29
e 8 31
e 8 33
e 8 34
e 8 35
e 8 36
e 8 38
e 8 39
e 8 42
e 8 44
e 8 45
e 8 46
e 8 48
e 8 49
e 8 51
e 8 52
e 8 53
e 8 54
e 8 55
e 8 56
e 8 57
e 8 60
e 9 10
e 9 14
e 9 19
e 9 20
e 9 22
e 9 23
e 9 28
e 9 29
e 9 31
e 9 32
e 9 33
e 9 34
e 9 35
e 9 36
e 9 38
e 9 39
e 9 42
e 9 44
e 9 45
e 9 48
e 9 49
e 9 52
e 9 53
e 9 55
e 9 56
e 9 57
e 9 60
e 10 19
e 10 20
e 10 22
e 10 23
e 10 24
e 10 27
e 10 28
e 10 29
e 10 31
e 10 33
e 10 34
e 10 35
e 10 36
e 10 37
e 10 38
e 10 42
e 10 44
e 10 45
e 10 47
e 10 48
e 10 49
e 10 52
e 10 53
e 10 54
e 10 55
e 10 56
e 10 57
e 10 58
e 10 60
e 11 12
e 11 13
e 11 14
e 11 15
e 11 16
e 11 17
e 11 18
e 11 21
e 11 24
e 11 25
e 11 26
e 11 27
e 11 30
e 11 32
e 11 37
e 11 39
e 11 40
e 11 41
e 11 42
e 11 43
e 11 46
e 11 47
e 11 50
e 11 51
e 11 52
e 11 54
e 11 55
e 11 56
e 11 58
e 11 59
e 12 13
e 12 14
e 12 15
e 12 16
e 12 17
e 12 18
e 12 20
e 12 21
e 12 22
e 12 24
e 12 25
e 12 26
e 12 27
e 12 30
e 12 31
e 12 32
e 12 37
e 12 39
e 12 40
e 12 41
e 12 43
e 12 46
e 12 47
e 12 50
e 12 51
e 12 52
e 12 54
e 12 58
e 12 59
e 13 14
e 13 15
e 13 16
e 13 17
e 13 18
e 13 19
e 13 21
e 13 22
e 13 23
e 13 24
e 13 25
e 13 26
e 13 27
e 13 30
e 13 32
e 13 37
e 13 38
e 13 39
e 13 40
e 13 41
e 13 43
e 13 46
e 13 47
e 13 48
e 13 50
e 13 51
e 13 52
e 13 54
e 13 58
e 13 59
e 14 15
e 14 16
e 14 17
e 14 18
e 14 21
e 14 24
e 14 25
e 14 26
e 14 27
e 14 30
e 14 32
e 14 33
e 14 37
e 14 39
e 14 40
e 14 41
e 14 43
e 14 46
e 14 47
e 14 50
e 14 51
e 14 52
e 14 54
e 14 56
e 14 58
e 14 59
e 15 16
e 15 17
e 15 18
e 15 21
e 15 23
e 15 24
e 15 25
e 15 26
e 15 27
e 15 30
e 15 32
e 15 36
e 15 37
e 15 38
e 15 39
e 15 40
e 15 41
e 15 43
e 15 46
e 15 47
e 15 50
e 15 51
e 15 52
e 15 53
e 15 54
e 15 56
e 15 58
e 15 59
e 16 17
e 16 18
e 16 20
e 16 21
e 16 24
e 16 25
e 16 26
e 16 27
e 16 30
e 16 32
e 16 36
e 16 37
e 16 38
e 16 39
e 16 40
e 16 41
e 16 43
e 16 46
e 16 47
e 16 50
e 16 51
e 16 52
e 16 54
e 16 55
e 16 56
e 16 58
e 16 59
e 17 18
e 17 19
e 17 20
e 17 21
e 17 23
e 17 24
e 17 25
e 17 26
e 17 27
e 17 30
e 17 31
e 17 32
e 17 33
e 17 37
e 17 39
e 17 40
e 17 41
e 17 43
e 17 46
e 17 47
e 17 50
e 17 51
e 17 52
e 17 54
e 17 58
e 17 59
e 18 21
e 18 24
e 18 25
e 18 26
e 18 27
e 18 28
e 18 30
e 18 32
e 18 37
e 18 38
e 18 39
e 18 40
e 18 41
e 18 43
e 18 44
e 18 46
e 18 47
e 18 50
e 18 51
e 18 52
e 18 54
e 18 58
e 18 59
e 18 60
e 19 20
e 19 22
e 19 23
e 19 26
e 19 28
e 19 29
e 19 31
e 19 32
e 19 33
e 19 34
e 19 35
e 19 36
e 19 38
e 19 40
e 19 42
e 19 44
e 19 45
e 19 48
e 19 49
e 19 50
e 19 53
e 19 55
e 19 56
e 19 57
e 19 59
e 19 60
e 20 22
e 20 23
e 20 24
e 20 25
e 20 26
e 20 28
e 20 29
e 20 31
e 20 33
e 20 34
e 20 35
e 20 36
e 20 37
e 20 38
e 20 39
e 20 40
e 20 42
e 20 44
e 20 45
e 20 47
e 20 48
e 20 49
e 20 53
e 20 55
e 20 56
e 20 57
e 20 60
e 21 24
e 21 25
e 21 26
e 21 27
e 21 30
e 21 32
e 21 33
e 21 36
e 21 37
e 21 39
e 21 40
e 21 41
e 21 43
e 21 46
e 21 47
e 21 50
e 21 51
e 21 52
e 21 54
e 21 58
e 21 59
e 22 23
e 22 28
e 22 29
e 22 30
e 22 31
e 22 33
e 22 34
e 22 35
e 22 36
e 22 38
e 22 41
e 22 42
e 22 44
e 22 45
e 22 48
e 22 49
e 22 51
e 22 53
e 22 55
e 22 56
e 22 57
e 22 59
e 22 60
e 23 26
e 23 28
e 23 29
e 23 31
e 23 33
e 23 34
e 23 35
e 23 36
e 23 37
e 23 38
e 23 39
e 23 42
e 23 44
e 23 45
e 23 48
e 23 49
e 23 53
e 23 55
e 23 56
e 23 57
e 23 60
e 24 25
e 24 26
e 24 27
e 24 29
e 24 30
e 24 32
e 24 33
e 24 37
e 24 38
e 24 39
e 24 40
e 24 41
e 24 43
e 24 45
e 24 46
e 24 47
e 24 48
e 24 50
e 24 51
e 24 52
e 24 54
e 24 58
e 24 59
e 25 26
e 25 27
e 25 29
e 25 30
e 25 32
e 25 33
e 25 37
e 25 39
e 25 40
e 25 41
e 25 43
e 25 46
e 25 47
e 25 48
e 25 50
e 25 51
e 25 52
e 25 54
e 25 56
e 25 58
e 25 59
e 25 60
e 26 27
e 26 30
e 26 31
e 26 32
e 26 35
e 26 37
e 26 39
e 26 40
e 26 41
e 26 43
e 26 46
e 26 47
e 26 50
e 26 51
e 26 52
e 26 53
e 26 54
e 26 58
e 26 59
e 27 30
e 27 31
e 27 32
e 27 37
e 27 39
e 27 40
e 27 41
e 27 43
e 27 44
e 27 46
e 27 47
e 27 50
e 27 51
e 27 52
e 27 54
e 27 55
e 27 58
e 27 59
e 28 29
e 28 31
e 28 33
e 28 34
e 28 35
e 28 36
e 28 37
e 28 38
e 28 40
e 28 42
e 28 44
e 28 45
e 28 48
e 28 49
e 28 52
e 28 53
e 28 54
e 28 55
e 28 56
e 28 57
e 28 60
e 29 31
e 29 32
e 29 33
e 29 34
e 29 35
e 29 36
e 29 38
e 29 42
e 29 44
e 29 45
e 29 47
e 29 48
e 29 49
e 29 53
e 29 55
e 29 56
e 29 57
e 29 60
e 30 31
e 30 32
e 30 37
e 30 39
e 30 40
e 30 41
e 30 43
e 30 46
e 30 47
e 30 50
e 30 51
e 30 52
e 30 54
e 30 58
e 30 59
e 31 33
e 31 34
e 31 35
e 31 36
e 31 38
e 31 39
e 31 42
e 31 44
e 31 45
e 31 48
e 31 49
e 31 53
e 31 55
e 31 56
e 31 57
e 31 60
e 32 33
e 32 34
e 32 36
e 32 37
e 32 39
e 32 40
e 32 41
e 32 43
e 32 45
e 32 46
e 32 47
e 32 48
e 32 50
e 32 51
e 32 52
e 32 53
e 32 54
e 32 58
e 32 59
e 33 34
e 33 35
e 33 36
e 33 38
e 33 39
e 33 41
e 33 42
e 33 44
e 33 45
e 33 48
e 33 49
e 33 51
e 33 53
e 33 54
e 33 55
e 33 56
e 33 57
e 33 60
e 34 35
e 34 36
e 34 37
e 34 38
e 34 42
e 34 44
e 34 45
e 34 47
e 34 48
e 34 49
e 34 53
e 34 55
e 34 56
e 34 57
e 34 60
e 35 36
e 35 37
e 35 38
e 35 42
e 35 44
e 35 45
e 35 46
e 35 48
e 35 49
e 35 53
e 35 55
e 35 56
e 35 57
e 35 58
e 35 60
e 36 38
e 36 41
e 36 42
e 36 44
e 36 45
e 36 47
e 36 48
e 36 49
e 36 53
e 36 55
e 36 56
e 36 57
e 36 60
e 37 39
e 37 40
e 37 41
e 37 43
e 37 46
e 37 47
e 37 49
e 37 50
e 37 51
e 37 52
e 37 54
e 37 56
e 37 58
e 37 59
e 38 39
e 38 41
e 38 42
e 38 44
e 38 45
e 38 48
e 38 49
e 38 53
e 38 55
e 38 56
e 38 57
e 38 60
e 39 40
e 39 41
e 39 43
e 39 44
e 39 46
e 39 47
e 39 50
e 39 51
e 39 52
e 39 54
e 39 58
e 39 59
e 40 41
e 40 43
e 40 46
e 40 47
e 40 50
e 40 51
e 40 52
e 40 54
e 40 58
e 40 59
e 41 42
e 41 43
e 41 45
e 41 46
e 41 47
e 41 50
e 41 51
e 41 52
e 41 53
e 41 54
e 41 57
e 41 58
e 41 59
e 41 60
e 42 44
e 42 45
e 42 47
e 42 48
e 42 49
e 42 52
e 42 53
e 42 55
e 42 56
e 42 57
e 42 60
e 43 46
e 43 47
e 43 50
e 43 51
e 43 52
e 43 53
e 43 54
e 43 58
e 43 59
e 44 45
e 44 48
e 44 49
e 44 51
e 44 53
e 44 55
e 44 56
e 44 57
e 44 60
e 45 47
e 45 48
e 45 49
e 45 50
e 45 53
e 45 54
e 45 55
e 45 56
e 45 57
e 45 60
e 46 47
e 46 50
e 46 51
e 46 52
e 46 54
e 46 58
e 46 59
e 46 60
e 47 50
e 47 51
e 47 52
e 47 54
e 47 58
e 47 59
e 47 60
e 48 49
e 48 53
e 48 54
e 48 55
e 48 56
e 48 57
e 48 60
e 49 53
e 49 55
e 49 56
e 49 57
e 49 60
e 50 51
e 50 52
e 50 54
e 50 55
e 50 58
e 50 59
e 51 52
e 51 54
e 51 57
e 51 58
e 51 59
e 52 53
e 52 54
e 52 58
e 52 59
e 52 60
e 53 55
e 53 56
e 53 57
e 53 60
e 54 58
e 54 59
e 55 56
e 55 57
e 55 60
e 56 57
e 56 60
e 57 60
e 58 59
e 58 60
